lbl,CUST NO.,READY TIME,XCOORD.,YCOORD.,DEMAND,DUE DATE,SERVICE TIME
15,493,145,227,26,20,205,90
15,538,154,212,9,30,222,90
15,408,217,225,22,40,263,90
15,116,230,216,6,20,269,90
15,363,297,223,23,10,368,90
15,152,319,215,4,40,363,90
15,253,405,218,20,20,452,90
15,512,405,218,3,30,464,90
15,172,494,217,21,30,546,90
15,162,506,221,8,10,555,90
15,550,575,216,23,10,649,90
15,375,587,223,11,20,660,90
15,377,689,216,25,30,720,90
15,543,699,217,11,30,741,90
15,271,766,212,26,30,830,90
